peakDumbCharging = 7400; 
Machine = anon_enum(16); 
machineSpeed = [3700,3700,3700,3700,3700,3700,3700,3700,3700,3700,3700,3700,3700,3700,3700,3700]; 
machineLoad = [3700,3700,3700,3700,3700,3700,3700,3700,3700,3700,3700,3700,3700,3700,3700,3700]; 
Car = anon_enum(7); 
demandCar = [1560,8520,8400,7040,3680,15320,31920]; 
arrivalCar = [77,73,67,67,60,49,34]; 
departureCar = [78,77,73,72,62,54,53]; 
